Instance: E241-22k.dat
Class:  5
  240 --- number of customers (no depot)
   50 --- number of vehicles
  720 --- number of items
Capacity - height - width of vehicles
   200     40     20
Node - x - y - demand
    0     0.0     0.0     0.0
    1     5.8     0.0    40.0
    2     2.9     5.0    40.0
    3    -2.9     5.0    40.0
    4    -5.8     0.0    40.0
    5    -2.9    -5.0    40.0
    6     2.9    -5.0    40.0
    7     8.7     5.0    40.0
    8     0.0    10.0    40.0
    9    -8.7     5.0    40.0
   10    -8.7    -5.0    40.0
   11     0.0   -10.0    40.0
   12     8.7    -5.0    40.0
   13     5.3     0.8    10.0
   14     3.3     4.3    10.0
   15     6.5    -1.3    10.0
   16     7.2    -2.5    20.0
   17     7.9    -3.8    10.0
   18     6.5     1.3    10.0
   19     7.2     2.5    20.0
   20     7.9     3.8    10.0
   21     2.0     5.0    10.0
   22    -2.0     5.0    10.0
   23     4.3     5.0    10.0
   24     5.8     5.0    20.0
   25     7.2     5.0    10.0
   26     2.2     6.3    10.0
   27     1.4     7.5    20.0
   28     0.7     8.8    10.0
   29    -3.3     4.3    10.0
   30    -5.3     0.8    10.0
   31    -2.2     6.3    10.0
   32    -1.4     7.5    20.0
   33    -0.7     8.8    10.0
   34    -4.3     5.0    10.0
   35    -5.8     5.0    20.0
   36    -7.2     5.0    10.0
   37    -5.3    -0.8    10.0
   38    -3.3    -4.3    10.0
   39    -6.5     1.3    10.0
   40    -7.2     2.5    20.0
   41    -7.9     3.8    10.0
   42    -6.5    -1.3    10.0
   43    -7.2    -2.5    20.0
   44    -7.9    -3.8    10.0
   45    -2.0    -5.0    10.0
   46     2.0    -5.0    10.0
   47    -4.3    -5.0    10.0
   48    -5.8    -5.0    20.0
   49    -7.2    -5.0    10.0
   50    -2.2    -6.3    10.0
   51    -1.4    -7.5    20.0
   52    -0.7    -8.8    10.0
   53     3.3    -4.3    10.0
   54     5.3    -0.8    10.0
   55     2.2    -6.3    10.0
   56     1.4    -7.5    20.0
   57     0.7    -8.8    10.0
   58     4.3    -5.0    10.0
   59     5.8    -5.0    20.0
   60     7.2    -5.0    10.0
   61     7.2     0.0    40.0
   62     3.6     6.3    40.0
   63    -3.6     6.3    40.0
   64    -7.2     0.0    40.0
   65    -3.6    -6.3    40.0
   66     3.6    -6.3    40.0
   67    10.8     6.3    40.0
   68     0.0    12.5    40.0
   69   -10.8     6.3    40.0
   70   -10.8    -6.3    40.0
   71     0.0   -12.5    40.0
   72    10.8    -6.3    40.0
   73     6.7     0.9    10.0
   74     4.1     5.3    10.0
   75     8.1    -1.6    10.0
   76     9.0    -3.1    20.0
   77     9.9    -4.7    10.0
   78     8.1     1.6    10.0
   79     9.0     3.1    20.0
   80     9.9     4.7    10.0
   81     2.5     6.3    10.0
   82    -2.5     6.3    10.0
   83     5.4     6.3    10.0
   84     7.2     6.3    20.0
   85     9.0     6.3    10.0
   86     2.7     7.8    10.0
   87     1.8     9.4    20.0
   88     0.9    10.9    10.0
   89    -4.1     5.3    10.0
   90    -6.7     0.9    10.0
   91    -2.7     7.8    10.0
   92    -1.8     9.4    20.0
   93    -0.9    10.9    10.0
   94    -5.4     6.3    10.0
   95    -7.2     6.3    20.0
   96    -9.0     6.3    10.0
   97    -6.7    -0.9    10.0
   98    -4.1    -5.3    10.0
   99    -8.1     1.6    10.0
  100    -9.0     3.1    20.0
  101    -9.9     4.7    10.0
  102    -8.1    -1.6    10.0
  103    -9.0    -3.1    20.0
  104    -9.9    -4.7    10.0
  105    -2.5    -6.3    10.0
  106     2.5    -6.3    10.0
  107    -5.4    -6.3    10.0
  108    -7.2    -6.3    20.0
  109    -9.0    -6.3    10.0
  110    -2.7    -7.8    10.0
  111    -1.8    -9.4    20.0
  112    -0.9   -10.9    10.0
  113     4.1    -5.3    10.0
  114     6.7    -0.9    10.0
  115     2.7    -7.8    10.0
  116     1.8    -9.4    20.0
  117     0.9   -10.9    10.0
  118     5.4    -6.3    10.0
  119     7.2    -6.3    20.0
  120     9.0    -6.3    10.0
  121     9.0     0.0    40.0
  122     4.5     7.8    40.0
  123    -4.5     7.8    40.0
  124    -9.0     0.0    40.0
  125    -4.5    -7.8    40.0
  126     4.5    -7.8    40.0
  127    13.5     7.8    40.0
  128     0.0    15.6    40.0
  129   -13.5     7.8    40.0
  130   -13.5    -7.8    40.0
  131     0.0   -15.6    40.0
  132    13.5    -7.8    40.0
  133     8.3     1.2    10.0
  134     5.2     6.6    10.0
  135    10.1    -2.0    10.0
  136    11.3    -3.9    20.0
  137    12.4    -5.9    10.0
  138    10.1     2.0    10.0
  139    11.3     3.9    20.0
  140    12.4     5.9    10.0
  141     3.2     7.8    10.0
  142    -3.2     7.8    10.0
  143     6.8     7.8    10.0
  144     9.0     7.8    20.0
  145    11.3     7.8    10.0
  146     3.4     9.8    10.0
  147     2.3    11.7    20.0
  148     1.1    13.7    10.0
  149    -5.2     6.6    10.0
  150    -8.3     1.2    10.0
  151    -3.4     9.8    10.0
  152    -2.3    11.7    20.0
  153    -1.1    13.7    10.0
  154    -6.8     7.8    10.0
  155    -9.0     7.8    20.0
  156   -11.3     7.8    10.0
  157    -8.3    -1.2    10.0
  158    -5.2    -6.6    10.0
  159   -10.1     2.0    10.0
  160   -11.3     3.9    20.0
  161   -12.4     5.9    10.0
  162   -10.1    -2.0    10.0
  163   -11.3    -3.9    20.0
  164   -12.4    -5.9    10.0
  165    -3.2    -7.8    10.0
  166     3.2    -7.8    10.0
  167    -6.8    -7.8    10.0
  168    -9.0    -7.8    20.0
  169   -11.3    -7.8    10.0
  170    -3.4    -9.8    10.0
  171    -2.3   -11.7    20.0
  172    -1.1   -13.7    10.0
  173     5.2    -6.6    10.0
  174     8.3    -1.2    10.0
  175     3.4    -9.8    10.0
  176     2.3   -11.7    20.0
  177     1.1   -13.7    10.0
  178     6.8    -7.8    10.0
  179     9.0    -7.8    20.0
  180    11.3    -7.8    10.0
  181    11.3     0.0    40.0
  182     5.6     9.8    40.0
  183    -5.6     9.8    40.0
  184   -11.3     0.0    40.0
  185    -5.6    -9.8    40.0
  186     5.6    -9.8    40.0
  187    16.9     9.8    40.0
  188     0.0    19.5    40.0
  189   -16.9     9.8    40.0
  190   -16.9    -9.8    40.0
  191     0.0   -19.5    40.0
  192    16.9    -9.8    40.0
  193    10.4     1.5    10.0
  194     6.5     8.3    10.0
  195    12.7    -2.4    10.0
  196    14.1    -4.9    20.0
  197    15.5    -7.3    10.0
  198    12.7     2.4    10.0
  199    14.1     4.9    20.0
  200    15.5     7.3    10.0
  201     3.9     9.8    10.0
  202    -3.9     9.8    10.0
  203     8.5     9.8    10.0
  204    11.3     9.8    20.0
  205    14.1     9.8    10.0
  206     4.2    12.2    10.0
  207     2.8    14.6    20.0
  208     1.4    17.1    10.0
  209    -6.5     8.3    10.0
  210   -10.4     1.5    10.0
  211    -4.2    12.2    10.0
  212    -2.8    14.6    20.0
  213    -1.4    17.1    10.0
  214    -8.5     9.8    10.0
  215   -11.3     9.8    20.0
  216   -14.1     9.8    10.0
  217   -10.4    -1.5    10.0
  218    -6.5    -8.3    10.0
  219   -12.7     2.4    10.0
  220   -14.1     4.9    20.0
  221   -15.5     7.3    10.0
  222   -12.7    -2.4    10.0
  223   -14.1    -4.9    20.0
  224   -15.5    -7.3    10.0
  225    -3.9    -9.8    10.0
  226     3.9    -9.8    10.0
  227    -8.5    -9.8    10.0
  228   -11.3    -9.8    20.0
  229   -14.1    -9.8    10.0
  230    -4.2   -12.2    10.0
  231    -2.8   -14.6    20.0
  232    -1.4   -17.1    10.0
  233     6.5    -8.3    10.0
  234    10.4    -1.5    10.0
  235     4.2   -12.2    10.0
  236     2.8   -14.6    20.0
  237     1.4   -17.1    10.0
  238     8.5    -9.8    10.0
  239    11.3    -9.8    20.0
  240    14.1    -9.8    10.0
Node - number of items - h - w for each item
    0   0
    1   5    7    6    9    4   22    3   21    2   19    2
    2   2    4   10   13    3
    3   2    6   12   11    2
    4   2    5    9    6    7
    5   1    5    9
    6   2   11    4   22    2
    7   1    6   11
    8   4    7    6    6    6   11    5    7    3
    9   4    5    7   12    3   12    2    5    2
   10   3    6    8   11    6    8    5
   11   1    8    9
   12   2    7   10    7    7
   13   3    7    6   12    4    7    4
   14   2    6   12    6    4
   15   1    8    9
   16   2    5   12    4    2
   17   2   21    3   13    3
   18   2   19    2   18    2
   19   3    4    9   10    5    9    3
   20   5    5    8    9    6   12    4   19    3    9    3
   21   3    9    5    5    5    9    3
   22   5    7    9    5    6    8    5   17    3    7    3
   23   3    6   10    7    6    5    5
   24   1   11    5
   25   3   16    4    6    4    8    3
   26   4   12    5    7    5   23    3    6    2
   27   4    8    6    6    4   14    3   19    2
   28   2    8    8    5    6
   29   5    7   12    7   11    9    4    9    3   22    2
   30   5    5   11    5   11    7    4   17    2    9    2
   31   4    9    5    8    4    5    4   10    2
   32   5    7   12    7    5    9    3    5    3    8    2
   33   1    6    4
   34   1    5    2
   35   3    4    6    9    3    7    3
   36   2    6    3    6    3
   37   4    5   10   23    4    5    4   12    3
   38   3    7    4    6    3    6    2
   39   4    4   10   14    3    4    3    9    2
   40   3    9    5   10    3   15    2
   41   4    6   12    7    9    8    3    6    3
   42   2   13    3   19    2
   43   4   10    5   10    4    5    3    4    2
   44   4    8   10    5    5   21    3   23    2
   45   5    6    6    9    5   23    4   22    3    8    3
   46   1   13    4
   47   5    6   11    6    6   22    3   21    3   10    2
   48   5    6    5    5    4   13    3    9    3    7    2
   49   2   21    4    7    2
   50   4    5   11    9    4    6    3   19    2
   51   3    8   12    5   12   17    2
   52   2    6    4    8    3
   53   3    7   11    9    5   10    3
   54   3   10    4    7    4   15    3
   55   4   11    5   24    4   19    3   17    3
   56   1    8    5
   57   1   13    4
   58   2   11    5    6    3
   59   4    5    7   14    3    4    3   13    2
   60   4    9    4    5    4   13    3   12    2
   61   4    6   10    5    6    8    4    6    3
   62   4    5    6    5    5   10    3    5    3
   63   1    4    2
   64   1   21    2
   65   4    6    9    8    5    6    4    6    3
   66   5    7    5   22    4   10    3    5    3    5    3
   67   4    8   12    6    5    6    4   10    3
   68   5    7    7   11    6   18    3    8    3    7    3
   69   3    6   12   10    5   20    3
   70   5    8    9    8    5    8    4   10    2    7    2
   71   2    7    4   11    3
   72   3    5   10    7    5   11    2
   73   1   11    5
   74   5    9    6   10    5   23    4   20    4    9    3
   75   2    9    4   20    3
   76   1   17    3
   77   3    5    6   15    3    9    3
   78   1    8    2
   79   2    6    6    6    4
   80   2    7    5   15    2
   81   3    9    6    7    5    8    3
   82   3    5    8    8    4   12    2
   83   3    9    5    5    3    4    3
   84   2   12    6   16    4
   85   2    8    4   19    3
   86   1   18    2
   87   4    8    9    8    5   19    3   14    3
   88   5    6   11    7    5   23    4   13    4    5    4
   89   2    5    6   22    2
   90   4    7   10    5    4   11    3    4    3
   91   4    8    6    6    6   16    3    5    3
   92   4    6    9    8    6    7    5   15    3
   93   5    6    9   10    4    8    4    6    3    6    3
   94   4    7   10    4    9    4    8    8    4
   95   2    9    5   10    3
   96   2    8    6   15    2
   97   2    9    4   17    2
   98   4    6    9    6    5   23    4    6    3
   99   3    5    8    9    6    9    2
  100   4    5    9    7    5    5    5    6    2
  101   4    8    9    6    8    8    4    9    2
  102   5    4   11   11    6    4    5    8    4    9    3
  103   3    8    9    7    9    7    5
  104   5    5    9    5    9    8    5    9    4    5    2
  105   1   20    4
  106   1    8    6
  107   4    6   11    5    5    6    4   19    2
  108   1    6    6
  109   1    5    5
  110   4    6    6    8    5   17    4   11    4
  111   2    6    7    4    2
  112   2    7   10    5    9
  113   1    9    3
  114   1    5    4
  115   5    8   11    7   10    7    6    5    6    9    4
  116   5    6   12    4    6    9    5    5    4    6    3
  117   4    7   10    5    5    6    4   19    2
  118   2    6    5   22    4
  119   5    7   10    7   10    6   10   15    4   23    3
  120   3    7   11   23    4    5    4
  121   4    7    6    7    5    4    4   10    2
  122   5    5   10    8    9   11    6    6    4    7    3
  123   3    7    3    5    3    5    3
  124   5    4    9    9    3   14    2   11    2    7    2
  125   1   17    2
  126   3    5    9    6    5    7    4
  127   5    7    8    6    8    4    4   13    3    9    3
  128   1   10    3
  129   4    4    6   18    4    8    4    6    2
  130   1   10    3
  131   3    7   11    5    4   13    3
  132   2    4    8    7    3
  133   5    6    8    6    6    7    5   11    3    5    3
  134   4    6    9   10    5    6    5    7    3
  135   1    8    6
  136   2    7    6    4    5
  137   2   12    3    4    3
  138   3    8    5   13    3   13    3
  139   3   13    3    6    3    5    3
  140   2   10    3    7    3
  141   3    5   12    8    4    9    2
  142   3    4    6    9    4   11    2
  143   1    5    8
  144   4    6    8   11    6    7    6    5    2
  145   1   11    3
  146   5    8   11   10    5    8    5    9    4   18    3
  147   2    5   10   12    3
  148   1    9    4
  149   3    8   10    5   10   10    2
  150   5    8    8   24    4    6    4   15    3   21    2
  151   3   10    4    8    4    6    3
  152   1    8    3
  153   1    7    2
  154   2    8    3    7    3
  155   1    6    2
  156   3    7   10    6    9   11    3
  157   1    4    4
  158   5    7   10    4   10    6    8    8    5    5    3
  159   4   18    4   14    4   20    3   22    2
  160   5    6   10    5    6    8    5   12    4   21    2
  161   5    8    5    8    5   11    4    8    4    4    2
  162   2   22    3   12    2
  163   4    6    5   11    4   17    3    5    3
  164   5    4   12    6    7    6    4    8    2    7    2
  165   1    6    8
  166   4    4   12    5    5   16    2   14    2
  167   1    8    4
  168   3   21    3   10    3    5    3
  169   1    4    7
  170   5    4    5   22    3   22    2    5    2    4    2
  171   4    8    6    5    5   22    4   20    2
  172   3    6    8    5    7    6    3
  173   4   22    4    9    4    8    4   13    3
  174   1    7   11
  175   1   17    3
  176   3    8    7   14    3    8    3
  177   4    5    9    6    7   21    3    7    2
  178   1    8    4
  179   4    8    7    8    4    7    4   14    3
  180   4   11    4    5    4   18    2    7    2
  181   2    7    5    8    4
  182   5    6   12    9    5   12    3    9    3    5    3
  183   3   21    4   19    4   24    2
  184   4    5    8    7    5   13    2    7    2
  185   1    9    6
  186   1    5    6
  187   4    7   11    6   10   12    5   19    2
  188   1    9    4
  189   3    5    9   12    3   19    2
  190   3    9    6    5    3    4    3
  191   1    6   12
  192   5    9    4   23    3   19    3   10    3   16    2
  193   2    5    8    6    5
  194   3   12    6    5    5   18    3
  195   4    6    5    9    4    5    4   23    2
  196   5    5    5    6    4   19    3    7    2    6    2
  197   5    7    7    4    6    8    5   21    3   12    3
  198   1   17    3
  199   3    5   12    8    7    7    3
  200   3    5    4    8    3    6    3
  201   1   11    3
  202   2   21    3    4    2
  203   2    5    9   10    5
  204   5    4    7    7    6    4    5    9    3    8    3
  205   3    8   12    5    5   19    3
  206   3    4    9   22    2   20    2
  207   4    8   11    6    5   16    4    5    4
  208   2    7    8   23    4
  209   2    6    4   12    3
  210   5    5   10    7    8   11    5    5    3   18    2
  211   5    7   11    6    8    8    4   23    3   15    2
  212   5    6    5    6    5    6    4   21    3    6    3
  213   2   18    4   11    4
  214   2    4    9   11    3
  215   4    4    9    5    7   11    4    7    4
  216   1    5    3
  217   5    5   11   10    4    6    4   24    3    6    3
  218   2    7    9   23    3
  219   1   13    3
  220   1    5    4
  221   4    7    9    6    9    5    6    9    3
  222   5    6    7   13    4   12    4    5    3    7    2
  223   5    4   10    6    7   12    5   19    4    6    2
  224   4    5    5    5    4    7    3    4    3
  225   5    6    6    9    5   10    4   19    3    9    3
  226   2   12    5    6    4
  227   1    7    6
  228   5    7    6   11    4   10    4    9    4    8    3
  229   3   11    6   13    4   10    2
  230   4    7    9   10    5    7    5    7    3
  231   5    8   10    6    5    6    5   14    4   10    3
  232   3    6    8   10    3    8    2
  233   5    8    8    6    6    5    6   19    2    6    2
  234   4   12    5    7    4   14    3   12    3
  235   5   10    6   21    3    8    3   18    2    9    2
  236   3    8    4    8    4   14    2
  237   4    6   10    7    7    7    6   12    3
  238   1    4    9
  239   5    7    9    6    8   17    4   10    4    5    3
  240   1    7    7
